wcsp 88 4 680 154
4 2 2 2 2 4 4 4 2 2 2 2 2 2 2 4 4 2 2 2 2 2 2 2 2 4 4 2 4 2 4 2 2 2 2 2 2 2 2 2 2 2 2 2 2 2 4 2 2 2 2 2 2 4 4 2 4 2 2 2 2 2 2 2 4 2 2 2 2 3 4 4 4 4 2 4 2 2 4 2 2 4 2 2 2 4 4 4
2 60 62 0 4
0 0 154
0 1 0
1 0 0
1 1 0
2 9 16 0 8
0 0 154
0 1 0
0 2 154
0 3 0
1 0 0
1 1 0
1 2 0
1 3 0
2 8 17 0 4
0 0 154
0 1 0
1 0 0
1 1 1
2 54 59 0 8
0 0 154
0 1 0
1 0 0
1 1 0
2 0 154
2 1 0
3 0 0
3 1 0
2 48 51 0 4
0 0 154
0 1 0
1 0 0
1 1 1
2 7 5 0 16
0 0 154
0 1 0
0 2 0
0 3 0
1 0 0
1 1 154
1 2 0
1 3 0
2 0 0
2 1 0
2 2 154
2 3 0
3 0 0
3 1 0
3 2 0
3 3 0
2 80 73 0 8
0 0 154
0 1 0
0 2 154
0 3 0
1 0 0
1 1 0
1 2 0
1 3 0
2 87 83 0 8
0 0 154
0 1 0
1 0 0
1 1 0
2 0 154
2 1 0
3 0 0
3 1 0
2 18 6 0 8
0 0 154
0 1 0
0 2 154
0 3 0
1 0 0
1 1 0
1 2 0
1 3 0
2 18 5 0 8
0 0 154
0 1 0
0 2 154
0 3 0
1 0 0
1 1 0
1 2 0
1 3 0
2 54 47 0 8
0 0 154
0 1 0
1 0 0
1 1 0
2 0 154
2 1 0
3 0 0
3 1 0
2 79 87 0 8
0 0 154
0 1 0
0 2 154
0 3 0
1 0 0
1 1 0
1 2 0
1 3 0
2 80 81 0 8
0 0 154
0 1 0
0 2 154
0 3 0
1 0 0
1 1 0
1 2 0
1 3 0
2 5 15 0 16
0 0 154
0 1 0
0 2 0
0 3 0
1 0 0
1 1 154
1 2 0
1 3 0
2 0 0
2 1 0
2 2 154
2 3 0
3 0 0
3 1 0
3 2 0
3 3 0
2 55 49 0 4
0 0 154
0 1 0
1 0 0
1 1 0
2 1 8 0 4
0 0 154
0 1 0
1 0 0
1 1 0
2 43 46 0 8
0 0 154
0 1 0
0 2 154
0 3 0
1 0 0
1 1 0
1 2 0
1 3 0
2 16 6 0 16
0 0 154
0 1 0
0 2 0
0 3 0
1 0 0
1 1 154
1 2 0
1 3 0
2 0 0
2 1 0
2 2 154
2 3 0
3 0 0
3 1 0
3 2 0
3 3 0
2 74 82 0 4
0 0 154
0 1 0
1 0 0
1 1 0
2 51 59 0 4
0 0 154
0 1 0
1 0 0
1 1 0
2 25 31 0 8
0 0 154
0 1 0
1 0 0
1 1 0
2 0 154
2 1 0
3 0 0
3 1 0
2 87 86 0 16
0 0 154
0 1 0
0 2 0
0 3 0
1 0 0
1 1 154
1 2 0
1 3 0
2 0 0
2 1 0
2 2 154
2 3 0
3 0 0
3 1 0
3 2 0
3 3 0
2 30 31 0 8
0 0 154
0 1 0
1 0 0
1 1 0
2 0 154
2 1 0
3 0 0
3 1 0
2 73 75 0 16
0 0 154
0 1 0
0 2 0
0 3 0
1 0 0
1 1 154
1 2 0
1 3 0
2 0 0
2 1 0
2 2 154
2 3 0
3 0 0
3 1 0
3 2 0
3 3 0
2 65 53 0 8
0 0 154
0 1 0
0 2 154
0 3 0
1 0 0
1 1 0
1 2 0
1 3 0
2 84 83 0 4
0 0 154
0 1 0
1 0 0
1 1 2
2 56 49 0 8
0 0 154
0 1 0
1 0 0
1 1 0
2 0 154
2 1 0
3 0 0
3 1 0
2 48 46 0 8
0 0 154
0 1 0
0 2 154
0 3 0
1 0 0
1 1 0
1 2 0
1 3 0
2 13 16 0 8
0 0 154
0 1 0
0 2 154
0 3 0
1 0 0
1 1 0
1 2 0
1 3 0
2 11 15 0 8
0 0 0
0 1 154
0 2 0
0 3 0
1 0 0
1 1 0
1 2 0
1 3 0
2 63 61 0 4
0 0 154
0 1 0
1 0 0
1 1 0
2 50 51 0 4
0 0 154
0 1 0
1 0 0
1 1 0
2 79 85 0 8
0 0 154
0 1 0
0 2 154
0 3 0
1 0 0
1 1 0
1 2 0
1 3 0
2 19 20 0 4
0 0 154
0 1 0
1 0 0
1 1 0
2 60 57 0 4
0 0 154
0 1 0
1 0 0
1 1 0
2 82 83 0 4
0 0 154
0 1 0
1 0 0
1 1 0
2 0 2 0 8
0 0 0
0 1 0
1 0 154
1 1 0
2 0 0
2 1 0
3 0 0
3 1 0
2 78 83 0 8
0 0 154
0 1 0
1 0 0
1 1 0
2 0 154
2 1 0
3 0 0
3 1 0
2 8 5 0 8
0 0 154
0 1 0
0 2 154
0 3 0
1 0 0
1 1 0
1 2 0
1 3 0
2 41 50 0 4
0 0 154
0 1 0
1 0 0
1 1 0
2 16 11 0 8
0 0 0
0 1 0
1 0 154
1 1 0
2 0 0
2 1 0
3 0 0
3 1 0
2 43 49 0 4
0 0 154
0 1 0
1 0 0
1 1 0
2 18 8 0 4
0 0 154
0 1 0
1 0 0
1 1 1
2 50 58 0 4
0 0 154
0 1 0
1 0 0
1 1 0
3 37 68 56 0 16
0 0 0 0
0 0 1 154
0 0 2 0
0 0 3 0
0 1 0 0
0 1 1 0
0 1 2 0
0 1 3 0
1 0 0 0
1 0 1 0
1 0 2 0
1 0 3 0
1 1 0 0
1 1 1 0
1 1 2 0
1 1 3 0
3 36 68 54 0 16
0 0 0 0
0 0 1 154
0 0 2 0
0 0 3 0
0 1 0 0
0 1 1 0
0 1 2 0
0 1 3 0
1 0 0 0
1 0 1 0
1 0 2 0
1 0 3 0
1 1 0 0
1 1 1 0
1 1 2 0
1 1 3 0
2 82 86 0 8
0 0 154
0 1 0
0 2 154
0 3 0
1 0 0
1 1 0
1 2 0
1 3 0
2 81 83 0 8
0 0 154
0 1 0
1 0 0
1 1 0
2 0 154
2 1 0
3 0 0
3 1 0
2 8 31 0 4
0 0 154
0 1 0
1 0 0
1 1 0
2 42 53 0 8
0 0 154
0 1 0
0 2 154
0 3 0
1 0 0
1 1 0
1 2 0
1 3 0
2 65 55 0 4
0 0 154
0 1 0
1 0 0
1 1 0
2 58 56 0 8
0 0 154
0 1 0
0 2 154
0 3 0
1 0 0
1 1 0
1 2 0
1 3 0
2 78 86 0 16
0 0 154
0 1 0
0 2 0
0 3 0
1 0 0
1 1 154
1 2 0
1 3 0
2 0 0
2 1 0
2 2 154
2 3 0
3 0 0
3 1 0
3 2 0
3 3 0
2 65 64 0 8
0 0 154
0 1 0
0 2 154
0 3 0
1 0 0
1 1 0
1 2 0
1 3 0
2 47 52 0 4
0 0 154
0 1 0
1 0 0
1 1 0
2 29 47 0 4
0 0 154
0 1 0
1 0 0
1 1 0
2 17 6 0 8
0 0 154
0 1 0
0 2 154
0 3 0
1 0 0
1 1 0
1 2 0
1 3 0
2 27 47 0 4
0 0 154
0 1 0
1 0 0
1 1 0
2 29 57 0 4
0 0 154
0 1 0
1 0 0
1 1 0
2 41 56 0 8
0 0 154
0 1 0
0 2 154
0 3 0
1 0 0
1 1 0
1 2 0
1 3 0
2 17 5 0 8
0 0 154
0 1 0
0 2 154
0 3 0
1 0 0
1 1 0
1 2 0
1 3 0
2 30 29 0 8
0 0 154
0 1 0
1 0 0
1 1 0
2 0 154
2 1 0
3 0 0
3 1 0
2 43 42 0 4
0 0 154
0 1 0
1 0 0
1 1 0
3 45 35 68 0 8
0 0 0 154
0 0 1 0
0 1 0 0
0 1 1 0
1 0 0 0
1 0 1 0
1 1 0 0
1 1 1 0
2 62 59 0 4
0 0 154
0 1 0
1 0 0
1 1 0
2 36 35 0 4
0 0 154
0 1 0
1 0 0
1 1 1
2 60 51 0 4
0 0 154
0 1 0
1 0 0
1 1 0
3 35 68 56 0 16
0 0 0 0
0 0 1 154
0 0 2 0
0 0 3 0
0 1 0 0
0 1 1 0
0 1 2 0
0 1 3 0
1 0 0 0
1 0 1 0
1 0 2 0
1 0 3 0
1 1 0 0
1 1 1 0
1 1 2 0
1 1 3 0
2 19 14 0 4
0 0 154
0 1 0
1 0 0
1 1 0
2 55 61 0 4
0 0 154
0 1 0
1 0 0
1 1 0
2 38 53 0 8
0 0 154
0 1 0
0 2 154
0 3 0
1 0 0
1 1 0
1 2 0
1 3 0
2 42 55 0 4
0 0 154
0 1 0
1 0 0
1 1 0
2 42 64 0 8
0 0 154
0 1 0
0 2 154
0 3 0
1 0 0
1 1 0
1 2 0
1 3 0
2 46 59 0 8
0 0 154
0 1 0
1 0 0
1 1 0
2 0 154
2 1 0
3 0 0
3 1 0
2 79 73 0 8
0 0 154
0 1 0
0 2 154
0 3 0
1 0 0
1 1 1
1 2 0
1 3 1
2 57 59 0 4
0 0 154
0 1 0
1 0 0
1 1 0
2 58 59 0 4
0 0 154
0 1 0
1 0 0
1 1 0
2 56 61 0 8
0 0 154
0 1 0
1 0 0
1 1 0
2 0 154
2 1 0
3 0 0
3 1 0
2 60 58 0 4
0 0 154
0 1 0
1 0 0
1 1 0
2 5 6 0 16
0 0 154
0 1 0
0 2 0
0 3 0
1 0 0
1 1 154
1 2 0
1 3 0
2 0 0
2 1 0
2 2 154
2 3 0
3 0 0
3 1 0
3 2 0
3 3 0
2 56 44 0 8
0 0 0
0 1 0
1 0 154
1 1 0
2 0 0
2 1 0
3 0 0
3 1 0
2 41 59 0 4
0 0 154
0 1 0
1 0 0
1 1 0
2 57 62 0 4
0 0 154
0 1 0
1 0 0
1 1 0
2 58 62 0 4
0 0 154
0 1 0
1 0 0
1 1 0
2 74 86 0 8
0 0 154
0 1 0
0 2 154
0 3 0
1 0 0
1 1 0
1 2 0
1 3 0
2 63 55 0 4
0 0 154
0 1 0
1 0 0
1 1 0
2 53 59 0 8
0 0 154
0 1 0
1 0 0
1 1 0
2 0 154
2 1 0
3 0 0
3 1 0
2 73 70 0 16
0 0 154
0 1 0
0 2 0
0 3 0
1 0 0
1 1 154
1 2 0
1 3 0
2 0 0
2 1 0
2 2 154
2 3 0
3 0 0
3 1 0
3 2 0
3 3 0
2 23 20 0 4
0 0 154
0 1 0
1 0 0
1 1 0
2 43 61 0 4
0 0 154
0 1 0
1 0 0
1 1 0
2 38 55 0 4
0 0 154
0 1 0
1 0 0
1 1 0
2 45 46 0 8
0 0 0
0 1 154
0 2 0
0 3 0
1 0 0
1 1 0
1 2 0
1 3 0
2 79 81 0 8
0 0 154
0 1 0
0 2 154
0 3 0
1 0 0
1 1 0
1 2 0
1 3 0
2 4 7 0 8
0 0 154
0 1 0
0 2 154
0 3 0
1 0 0
1 1 0
1 2 0
1 3 0
2 53 62 0 8
0 0 154
0 1 0
1 0 0
1 1 0
2 0 154
2 1 0
3 0 0
3 1 0
2 67 64 0 8
0 0 154
0 1 0
0 2 154
0 3 0
1 0 0
1 1 0
1 2 0
1 3 0
2 77 82 0 4
0 0 154
0 1 0
1 0 0
1 1 0
2 5 11 0 8
0 0 0
0 1 0
1 0 154
1 1 0
2 0 0
2 1 0
3 0 0
3 1 0
2 48 61 0 4
0 0 154
0 1 0
1 0 0
1 1 0
2 30 25 0 16
0 0 154
0 1 0
0 2 0
0 3 0
1 0 0
1 1 154
1 2 0
1 3 0
2 0 0
2 1 0
2 2 154
2 3 0
3 0 0
3 1 0
3 2 0
3 3 0
2 55 53 0 8
0 0 154
0 1 0
0 2 154
0 3 0
1 0 0
1 1 0
1 2 0
1 3 0
2 64 59 0 8
0 0 154
0 1 0
1 0 0
1 1 0
2 0 154
2 1 0
3 0 0
3 1 0
2 46 47 0 8
0 0 154
0 1 0
1 0 0
1 1 0
2 0 154
2 1 0
3 0 0
3 1 0
2 52 51 0 4
0 0 154
0 1 0
1 0 0
1 1 1
2 64 62 0 8
0 0 154
0 1 0
1 0 0
1 1 0
2 0 154
2 1 0
3 0 0
3 1 0
2 58 47 0 4
0 0 154
0 1 0
1 0 0
1 1 0
2 58 57 0 4
0 0 154
0 1 0
1 0 0
1 1 0
2 56 53 0 16
0 0 154
0 1 0
0 2 0
0 3 0
1 0 0
1 1 154
1 2 0
1 3 0
2 0 0
2 1 0
2 2 154
2 3 0
3 0 0
3 1 0
3 2 0
3 3 0
2 74 80 0 4
0 0 154
0 1 0
1 0 0
1 1 0
2 17 14 0 4
0 0 154
0 1 0
1 0 0
1 1 0
2 87 75 0 16
0 0 154
0 1 0
0 2 0
0 3 0
1 0 0
1 1 154
1 2 0
1 3 0
2 0 0
2 1 0
2 2 154
2 3 0
3 0 0
3 1 0
3 2 0
3 3 0
2 41 47 0 4
0 0 154
0 1 0
1 0 0
1 1 0
2 80 75 0 8
0 0 154
0 1 0
0 2 154
0 3 0
1 0 0
1 1 0
1 2 0
1 3 0
2 70 75 0 16
0 0 154
0 1 0
0 2 0
0 3 0
1 0 0
1 1 154
1 2 0
1 3 0
2 0 0
2 1 0
2 2 154
2 3 0
3 0 0
3 1 0
3 2 0
3 3 0
2 54 49 0 8
0 0 154
0 1 0
1 0 0
1 1 0
2 0 154
2 1 0
3 0 0
3 1 0
2 53 47 0 8
0 0 154
0 1 0
1 0 0
1 1 0
2 0 154
2 1 0
3 0 0
3 1 0
2 28 30 0 16
0 0 154
0 1 0
0 2 0
0 3 0
1 0 0
1 1 154
1 2 0
1 3 0
2 0 0
2 1 0
2 2 154
2 3 0
3 0 0
3 1 0
3 2 0
3 3 0
2 53 57 0 8
0 0 154
0 1 0
1 0 0
1 1 0
2 0 154
2 1 0
3 0 0
3 1 0
2 80 78 0 8
0 0 154
0 1 0
0 2 154
0 3 0
1 0 0
1 1 0
1 2 0
1 3 0
2 3 7 0 8
0 0 0
0 1 154
0 2 0
0 3 0
1 0 0
1 1 0
1 2 0
1 3 0
2 43 53 0 8
0 0 154
0 1 0
0 2 154
0 3 0
1 0 0
1 1 0
1 2 0
1 3 0
2 29 27 0 4
0 0 154
0 1 0
1 0 0
1 1 0
2 55 64 0 8
0 0 154
0 1 0
0 2 154
0 3 0
1 0 0
1 1 0
1 2 0
1 3 0
2 9 17 0 4
0 0 154
0 1 0
1 0 0
1 1 0
2 10 13 0 4
0 0 154
0 1 0
1 0 0
1 1 2
2 11 6 0 8
0 0 0
0 1 154
0 2 0
0 3 0
1 0 0
1 1 0
1 2 0
1 3 0
2 65 56 0 8
0 0 154
0 1 0
0 2 154
0 3 0
1 0 0
1 1 0
1 2 0
1 3 0
2 21 20 0 4
0 0 154
0 1 0
1 0 0
1 1 0
2 18 16 0 8
0 0 154
0 1 0
0 2 154
0 3 0
1 0 0
1 1 0
1 2 0
1 3 0
2 76 70 0 8
0 0 154
0 1 0
0 2 154
0 3 0
1 0 0
1 1 0
1 2 0
1 3 0
2 72 71 0 16
0 0 154
0 1 0
0 2 0
0 3 0
1 0 0
1 1 154
1 2 0
1 3 0
2 0 0
2 1 0
2 2 154
2 3 0
3 0 0
3 1 0
3 2 0
3 3 0
2 79 83 0 4
0 0 154
0 1 0
1 0 0
1 1 0
2 42 50 0 4
0 0 154
0 1 0
1 0 0
1 1 0
2 73 69 0 12
0 0 0
0 1 1
0 2 1
1 0 154
1 1 0
1 2 0
2 0 0
2 1 154
2 2 1
3 0 0
3 1 1
3 2 1
2 64 57 0 8
0 0 154
0 1 0
1 0 0
1 1 0
2 0 154
2 1 0
3 0 0
3 1 0
2 56 64 0 16
0 0 154
0 1 0
0 2 0
0 3 0
1 0 0
1 1 154
1 2 0
1 3 0
2 0 0
2 1 0
2 2 154
2 3 0
3 0 0
3 1 0
3 2 0
3 3 0
2 10 4 0 4
0 0 154
0 1 0
1 0 0
1 1 0
2 76 79 0 4
0 0 154
0 1 0
1 0 0
1 1 0
2 73 85 0 16
0 0 154
0 1 0
0 2 0
0 3 0
1 0 0
1 1 154
1 2 0
1 3 0
2 0 0
2 1 0
2 2 154
2 3 0
3 0 0
3 1 0
3 2 0
3 3 0
2 45 39 0 4
0 0 154
0 1 0
1 0 0
1 1 1
2 84 76 0 4
0 0 154
0 1 0
1 0 0
1 1 0
2 57 51 0 4
0 0 154
0 1 0
1 0 0
1 1 0
2 58 51 0 4
0 0 154
0 1 0
1 0 0
1 1 0
2 54 39 0 8
0 0 0
0 1 0
1 0 154
1 1 0
2 0 0
2 1 0
3 0 0
3 1 0
2 34 36 0 4
0 0 154
0 1 0
1 0 0
1 1 0
2 43 55 0 4
0 0 154
0 1 0
1 0 0
1 1 0
2 66 64 0 8
0 0 154
0 1 0
0 2 154
0 3 0
1 0 0
1 1 0
1 2 0
1 3 0
2 29 42 0 4
0 0 154
0 1 0
1 0 0
1 1 0
2 43 64 0 8
0 0 154
0 1 0
0 2 154
0 3 0
1 0 0
1 1 0
1 2 0
1 3 0
2 27 42 0 4
0 0 154
0 1 0
1 0 0
1 1 0
2 13 17 0 4
0 0 154
0 1 0
1 0 0
1 1 0
2 42 56 0 8
0 0 154
0 1 0
0 2 154
0 3 0
1 0 0
1 1 0
1 2 0
1 3 0
2 63 62 0 4
0 0 154
0 1 0
1 0 0
1 1 1
2 40 39 0 4
0 0 154
0 1 0
1 0 0
1 1 0
2 65 54 0 8
0 0 154
0 1 0
0 2 154
0 3 0
1 0 0
1 1 0
1 2 0
1 3 0
2 38 50 0 4
0 0 154
0 1 0
1 0 0
1 1 2
2 53 51 0 8
0 0 154
0 1 0
1 0 0
1 1 0
2 0 154
2 1 0
3 0 0
3 1 0
2 29 24 0 4
0 0 154
0 1 0
1 0 0
1 1 0
2 65 59 0 4
0 0 154
0 1 0
1 0 0
1 1 0
2 76 87 0 8
0 0 154
0 1 0
0 2 154
0 3 0
1 0 0
1 1 0
1 2 0
1 3 0
2 18 19 0 4
0 0 154
0 1 0
1 0 0
1 1 0
3 37 68 46 0 16
0 0 0 0
0 0 1 154
0 0 2 0
0 0 3 0
0 1 0 0
0 1 1 0
0 1 2 0
0 1 3 0
1 0 0 0
1 0 1 0
1 0 2 0
1 0 3 0
1 1 0 0
1 1 1 0
1 1 2 0
1 1 3 0
2 27 24 0 4
0 0 154
0 1 0
1 0 0
1 1 0
2 80 77 0 4
0 0 154
0 1 0
1 0 0
1 1 0
2 34 33 0 4
0 0 154
0 1 0
1 0 0
1 1 1
2 65 62 0 4
0 0 154
0 1 0
1 0 0
1 1 1
3 36 68 44 0 8
0 0 0 154
0 0 1 0
0 1 0 0
0 1 1 0
1 0 0 0
1 0 1 0
1 1 0 0
1 1 1 0
2 58 46 0 8
0 0 154
0 1 0
0 2 154
0 3 0
1 0 0
1 1 0
1 2 0
1 3 0
2 45 44 0 4
0 0 154
0 1 0
1 0 0
1 1 0
2 54 61 0 8
0 0 154
0 1 0
1 0 0
1 1 0
2 0 154
2 1 0
3 0 0
3 1 0
2 55 52 0 4
0 0 154
0 1 0
1 0 0
1 1 0
2 54 44 0 8
0 0 0
0 1 0
1 0 154
1 1 0
2 0 0
2 1 0
3 0 0
3 1 0
2 41 46 0 8
0 0 154
0 1 0
0 2 154
0 3 0
1 0 0
1 1 0
1 2 0
1 3 0
2 75 81 0 16
0 0 154
0 1 0
0 2 0
0 3 0
1 0 0
1 1 154
1 2 0
1 3 0
2 0 0
2 1 0
2 2 154
2 3 0
3 0 0
3 1 0
3 2 0
3 3 0
2 62 49 0 4
0 0 154
0 1 0
1 0 0
1 1 0
2 38 56 0 8
0 0 154
0 1 0
0 2 154
0 3 0
1 0 0
1 1 0
1 2 0
1 3 0
2 74 75 0 8
0 0 154
0 1 0
0 2 154
0 3 0
1 0 0
1 1 0
1 2 0
1 3 0
2 17 16 0 8
0 0 154
0 1 0
0 2 154
0 3 0
1 0 0
1 1 0
1 2 0
1 3 0
2 40 44 0 4
0 0 154
0 1 0
1 0 0
1 1 1
2 42 59 0 4
0 0 154
0 1 0
1 0 0
1 1 2
2 47 49 0 4
0 0 154
0 1 0
1 0 0
1 1 0
2 74 78 0 8
0 0 154
0 1 0
0 2 154
0 3 0
1 0 0
1 1 0
1 2 0
1 3 0
2 43 65 0 4
0 0 154
0 1 0
1 0 0
1 1 0
2 76 85 0 8
0 0 154
0 1 0
0 2 154
0 3 0
1 0 0
1 1 0
1 2 0
1 3 0
2 42 62 0 4
0 0 154
0 1 0
1 0 0
1 1 0
2 73 71 0 16
0 0 154
0 1 0
0 2 0
0 3 0
1 0 0
1 1 154
1 2 0
1 3 0
2 0 0
2 1 0
2 2 154
2 3 0
3 0 0
3 1 0
3 2 0
3 3 0
2 46 49 0 8
0 0 154
0 1 0
1 0 0
1 1 0
2 0 154
2 1 0
3 0 0
3 1 0
2 85 83 0 8
0 0 154
0 1 0
1 0 0
1 1 0
2 0 154
2 1 0
3 0 0
3 1 0
2 10 6 0 8
0 0 154
0 1 0
0 2 154
0 3 0
1 0 0
1 1 0
1 2 0
1 3 0
2 65 57 0 4
0 0 154
0 1 0
1 0 0
1 1 0
2 30 27 0 8
0 0 154
0 1 0
1 0 0
1 1 0
2 0 154
2 1 0
3 0 0
3 1 0
2 10 5 0 8
0 0 154
0 1 0
0 2 154
0 3 0
1 0 0
1 1 0
1 2 0
1 3 0
2 63 54 0 8
0 0 154
0 1 0
0 2 154
0 3 0
1 0 0
1 1 0
1 2 0
1 3 0
2 77 83 0 4
0 0 154
0 1 0
1 0 0
1 1 0
2 41 49 0 4
0 0 154
0 1 0
1 0 0
1 1 0
2 43 52 0 4
0 0 154
0 1 0
1 0 0
1 1 0
2 17 7 0 8
0 0 154
0 1 0
0 2 154
0 3 0
1 0 0
1 1 0
1 2 0
1 3 0
2 23 22 0 4
0 0 154
0 1 0
1 0 0
1 1 2
2 38 59 0 4
0 0 154
0 1 0
1 0 0
1 1 0
3 36 68 53 0 16
0 0 0 0
0 0 1 154
0 0 2 0
0 0 3 0
0 1 0 0
0 1 1 0
0 1 2 0
0 1 3 0
1 0 0 0
1 0 1 0
1 0 2 0
1 0 3 0
1 1 0 0
1 1 1 0
1 1 2 0
1 1 3 0
2 22 21 0 4
0 0 154
0 1 0
1 0 0
1 1 0
2 45 53 0 8
0 0 0
0 1 154
0 2 0
0 3 0
1 0 0
1 1 0
1 2 0
1 3 0
2 48 52 0 4
0 0 154
0 1 0
1 0 0
1 1 1
2 84 79 0 4
0 0 154
0 1 0
1 0 0
1 1 0
2 54 53 0 16
0 0 154
0 1 0
0 2 0
0 3 0
1 0 0
1 1 154
1 2 0
1 3 0
2 0 0
2 1 0
2 2 154
2 3 0
3 0 0
3 1 0
3 2 0
3 3 0
2 78 70 0 16
0 0 154
0 1 0
0 2 0
0 3 0
1 0 0
1 1 154
1 2 0
1 3 0
2 0 0
2 1 0
2 2 154
2 3 0
3 0 0
3 1 0
3 2 0
3 3 0
2 38 62 0 4
0 0 154
0 1 0
1 0 0
1 1 0
2 85 86 0 16
0 0 154
0 1 0
0 2 0
0 3 0
1 0 0
1 1 154
1 2 0
1 3 0
2 0 0
2 1 0
2 2 154
2 3 0
3 0 0
3 1 0
3 2 0
3 3 0
2 73 81 0 16
0 0 154
0 1 0
0 2 0
0 3 0
1 0 0
1 1 154
1 2 0
1 3 0
2 0 0
2 1 0
2 2 154
2 3 0
3 0 0
3 1 0
3 2 0
3 3 0
2 82 79 0 4
0 0 154
0 1 0
1 0 0
1 1 0
2 26 24 0 8
0 0 154
0 1 0
1 0 0
1 1 0
2 0 154
2 1 0
3 0 0
3 1 0
2 77 86 0 8
0 0 154
0 1 0
0 2 154
0 3 0
1 0 0
1 1 0
1 2 0
1 3 0
2 40 53 0 8
0 0 0
0 1 154
0 2 0
0 3 0
1 0 0
1 1 0
1 2 0
1 3 0
2 42 48 0 4
0 0 154
0 1 0
1 0 0
1 1 0
2 42 47 0 4
0 0 154
0 1 0
1 0 0
1 1 0
2 42 57 0 4
0 0 154
0 1 0
1 0 0
1 1 0
2 46 39 0 8
0 0 0
0 1 0
1 0 154
1 1 0
2 0 0
2 1 0
3 0 0
3 1 0
2 50 56 0 8
0 0 154
0 1 0
0 2 154
0 3 0
1 0 0
1 1 0
1 2 0
1 3 0
2 74 77 0 4
0 0 154
0 1 0
1 0 0
1 1 0
2 10 8 0 4
0 0 154
0 1 0
1 0 0
1 1 0
2 82 87 0 8
0 0 154
0 1 0
0 2 154
0 3 0
1 0 0
1 1 0
1 2 0
1 3 0
2 62 61 0 4
0 0 154
0 1 0
1 0 0
1 1 0
2 45 64 0 8
0 0 0
0 1 154
0 2 0
0 3 0
1 0 0
1 1 0
1 2 0
1 3 0
2 18 15 0 8
0 0 154
0 1 0
0 2 154
0 3 0
1 0 0
1 1 0
1 2 0
1 3 0
2 31 57 0 4
0 0 154
0 1 0
1 0 0
1 1 0
2 53 39 0 8
0 0 0
0 1 0
1 0 154
1 1 0
2 0 0
2 1 0
3 0 0
3 1 0
2 87 85 0 16
0 0 154
0 1 0
0 2 0
0 3 0
1 0 0
1 1 154
1 2 0
1 3 0
2 0 0
2 1 0
2 2 154
2 3 0
3 0 0
3 1 0
3 2 0
3 3 0
2 38 48 0 4
0 0 154
0 1 0
1 0 0
1 1 0
2 38 47 0 4
0 0 154
0 1 0
1 0 0
1 1 0
2 55 54 0 8
0 0 154
0 1 0
0 2 154
0 3 0
1 0 0
1 1 0
1 2 0
1 3 0
3 37 68 44 0 8
0 0 0 154
0 0 1 0
0 1 0 0
0 1 1 0
1 0 0 0
1 0 1 0
1 1 0 0
1 1 1 0
2 38 57 0 4
0 0 154
0 1 0
1 0 0
1 1 0
2 28 27 0 8
0 0 154
0 1 0
1 0 0
1 1 0
2 0 154
2 1 0
3 0 0
3 1 0
2 47 61 0 4
0 0 154
0 1 0
1 0 0
1 1 2
2 4 6 0 8
0 0 154
0 1 0
0 2 154
0 3 0
1 0 0
1 1 0
1 2 0
1 3 0
2 4 5 0 8
0 0 154
0 1 0
0 2 154
0 3 0
1 0 0
1 1 0
1 2 0
1 3 0
2 16 15 0 16
0 0 154
0 1 0
0 2 0
0 3 0
1 0 0
1 1 154
1 2 0
1 3 0
2 0 0
2 1 0
2 2 154
2 3 0
3 0 0
3 1 0
3 2 0
3 3 0
2 65 58 0 4
0 0 154
0 1 0
1 0 0
1 1 0
2 74 70 0 8
0 0 154
0 1 0
0 2 154
0 3 0
1 0 0
1 1 1
1 2 0
1 3 1
2 55 62 0 4
0 0 154
0 1 0
1 0 0
1 1 0
2 46 61 0 8
0 0 154
0 1 0
1 0 0
1 1 0
2 0 154
2 1 0
3 0 0
3 1 0
2 27 43 0 4
0 0 154
0 1 0
1 0 0
1 1 0
2 65 63 0 4
0 0 154
0 1 0
1 0 0
1 1 0
2 58 61 0 4
0 0 154
0 1 0
1 0 0
1 1 0
2 46 44 0 8
0 0 0
0 1 0
1 0 154
1 1 0
2 0 0
2 1 0
3 0 0
3 1 0
2 56 54 0 16
0 0 154
0 1 0
0 2 0
0 3 0
1 0 0
1 1 154
1 2 0
1 3 0
2 0 0
2 1 0
2 2 154
2 3 0
3 0 0
3 1 0
3 2 0
3 3 0
2 56 59 0 8
0 0 154
0 1 0
1 0 0
1 1 0
2 0 154
2 1 0
3 0 0
3 1 0
2 76 73 0 8
0 0 154
0 1 0
0 2 154
0 3 0
1 0 0
1 1 0
1 2 0
1 3 0
2 50 59 0 4
0 0 154
0 1 0
1 0 0
1 1 0
2 41 61 0 4
0 0 154
0 1 0
1 0 0
1 1 0
2 42 51 0 4
0 0 154
0 1 0
1 0 0
1 1 0
2 10 14 0 4
0 0 154
0 1 0
1 0 0
1 1 0
2 56 62 0 8
0 0 154
0 1 0
1 0 0
1 1 0
2 0 154
2 1 0
3 0 0
3 1 0
2 53 61 0 8
0 0 154
0 1 0
1 0 0
1 1 0
2 0 154
2 1 0
3 0 0
3 1 0
2 36 32 0 4
0 0 154
0 1 0
1 0 0
1 1 0
3 45 36 68 0 8
0 0 0 154
0 0 1 0
0 1 0 0
0 1 1 0
1 0 0 0
1 0 1 0
1 1 0 0
1 1 1 0
2 60 56 0 8
0 0 154
0 1 0
0 2 154
0 3 0
1 0 0
1 1 0
1 2 0
1 3 0
2 82 85 0 8
0 0 154
0 1 0
0 2 154
0 3 0
1 0 0
1 1 0
1 2 0
1 3 0
3 35 68 44 0 8
0 0 0 154
0 0 1 0
0 1 0 0
0 1 1 0
1 0 0 0
1 0 1 0
1 1 0 0
1 1 1 0
2 43 54 0 8
0 0 154
0 1 0
0 2 154
0 3 0
1 0 0
1 1 0
1 2 0
1 3 0
2 74 87 0 8
0 0 154
0 1 0
0 2 154
0 3 0
1 0 0
1 1 0
1 2 0
1 3 0
2 78 85 0 16
0 0 154
0 1 0
0 2 0
0 3 0
1 0 0
1 1 154
1 2 0
1 3 0
2 0 0
2 1 0
2 2 154
2 3 0
3 0 0
3 1 0
3 2 0
3 3 0
2 18 17 0 4
0 0 154
0 1 0
1 0 0
1 1 1
2 84 82 0 4
0 0 154
0 1 0
1 0 0
1 1 0
2 28 24 0 8
0 0 154
0 1 0
1 0 0
1 1 0
2 0 154
2 1 0
3 0 0
3 1 0
2 76 86 0 8
0 0 154
0 1 0
0 2 154
0 3 0
1 0 0
1 1 0
1 2 0
1 3 0
2 43 62 0 4
0 0 154
0 1 0
1 0 0
1 1 0
2 42 63 0 4
0 0 154
0 1 0
1 0 0
1 1 0
2 9 14 0 4
0 0 154
0 1 0
1 0 0
1 1 0
2 48 54 0 8
0 0 154
0 1 0
0 2 154
0 3 0
1 0 0
1 1 0
1 2 0
1 3 0
2 3 2 0 4
0 0 154
0 1 0
1 0 0
1 1 1
2 3 6 0 8
0 0 0
0 1 154
0 2 0
0 3 0
1 0 0
1 1 0
1 2 0
1 3 0
2 64 61 0 8
0 0 154
0 1 0
1 0 0
1 1 0
2 0 154
2 1 0
3 0 0
3 1 0
3 37 68 53 0 16
0 0 0 0
0 0 1 154
0 0 2 0
0 0 3 0
0 1 0 0
0 1 1 0
0 1 2 0
0 1 3 0
1 0 0 0
1 0 1 0
1 0 2 0
1 0 3 0
1 1 0 0
1 1 1 0
1 1 2 0
1 1 3 0
2 38 51 0 4
0 0 154
0 1 0
1 0 0
1 1 0
2 64 44 0 8
0 0 0
0 1 0
1 0 154
1 1 0
2 0 0
2 1 0
3 0 0
3 1 0
2 55 57 0 4
0 0 154
0 1 0
1 0 0
1 1 2
2 3 5 0 8
0 0 0
0 1 154
0 2 0
0 3 0
1 0 0
1 1 0
1 2 0
1 3 0
2 1 29 0 4
0 0 154
0 1 0
1 0 0
1 1 0
2 42 46 0 8
0 0 154
0 1 0
0 2 154
0 3 0
1 0 0
1 1 0
1 2 0
1 3 0
2 54 52 0 8
0 0 154
0 1 0
1 0 0
1 1 0
2 0 154
2 1 0
3 0 0
3 1 0
2 46 53 0 16
0 0 154
0 1 0
0 2 0
0 3 0
1 0 0
1 1 154
1 2 0
1 3 0
2 0 0
2 1 0
2 2 154
2 3 0
3 0 0
3 1 0
3 2 0
3 3 0
2 17 15 0 8
0 0 154
0 1 0
0 2 154
0 3 0
1 0 0
1 1 0
1 2 0
1 3 0
2 63 58 0 4
0 0 154
0 1 0
1 0 0
1 1 0
2 34 35 0 4
0 0 154
0 1 0
1 0 0
1 1 0
2 50 48 0 4
0 0 154
0 1 0
1 0 0
1 1 0
2 50 47 0 4
0 0 154
0 1 0
1 0 0
1 1 0
2 56 57 0 8
0 0 154
0 1 0
1 0 0
1 1 0
2 0 154
2 1 0
3 0 0
3 1 0
2 37 36 0 4
0 0 154
0 1 0
1 0 0
1 1 1
2 38 46 0 8
0 0 154
0 1 0
0 2 154
0 3 0
1 0 0
1 1 0
1 2 0
1 3 0
2 19 21 0 4
0 0 154
0 1 0
1 0 0
1 1 2
2 41 53 0 8
0 0 154
0 1 0
0 2 154
0 3 0
1 0 0
1 1 0
1 2 0
1 3 0
2 60 59 0 4
0 0 154
0 1 0
1 0 0
1 1 0
2 67 63 0 4
0 0 154
0 1 0
1 0 0
1 1 1
2 3 11 0 4
0 0 154
0 1 0
1 0 0
1 1 0
3 35 68 53 0 16
0 0 0 0
0 0 1 154
0 0 2 0
0 0 3 0
0 1 0 0
0 1 1 0
0 1 2 0
0 1 3 0
1 0 0 0
1 0 1 0
1 0 2 0
1 0 3 0
1 1 0 0
1 1 1 0
1 1 2 0
1 1 3 0
2 80 82 0 4
0 0 154
0 1 0
1 0 0
1 1 1
2 29 31 0 4
0 0 154
0 1 0
1 0 0
1 1 2
2 13 14 0 4
0 0 154
0 1 0
1 0 0
1 1 0
2 37 33 0 4
0 0 154
0 1 0
1 0 0
1 1 0
2 43 57 0 4
0 0 154
0 1 0
1 0 0
1 1 0
2 74 85 0 8
0 0 154
0 1 0
0 2 154
0 3 0
1 0 0
1 1 1
1 2 0
1 3 1
2 87 81 0 16
0 0 154
0 1 0
0 2 0
0 3 0
1 0 0
1 1 154
1 2 0
1 3 0
2 0 0
2 1 0
2 2 154
2 3 0
3 0 0
3 1 0
3 2 0
3 3 0
2 26 31 0 8
0 0 154
0 1 0
1 0 0
1 1 0
2 0 154
2 1 0
3 0 0
3 1 0
2 1 0 0 8
0 0 154
0 1 0
0 2 154
0 3 0
1 0 0
1 1 0
1 2 0
1 3 0
2 77 75 0 8
0 0 154
0 1 0
0 2 154
0 3 0
1 0 0
1 1 0
1 2 0
1 3 0
2 55 51 0 4
0 0 154
0 1 0
1 0 0
1 1 0
2 78 71 0 16
0 0 154
0 1 0
0 2 0
0 3 0
1 0 0
1 1 154
1 2 0
1 3 0
2 0 0
2 1 0
2 2 154
2 3 0
3 0 0
3 1 0
3 2 0
3 3 0
2 41 55 0 4
0 0 154
0 1 0
1 0 0
1 1 0
3 36 68 56 0 16
0 0 0 0
0 0 1 154
0 0 2 0
0 0 3 0
0 1 0 0
0 1 1 0
0 1 2 0
0 1 3 0
1 0 0 0
1 0 1 0
1 0 2 0
1 0 3 0
1 1 0 0
1 1 1 0
1 1 2 0
1 1 3 0
2 16 5 0 16
0 0 154
0 1 0
0 2 0
0 3 0
1 0 0
1 1 154
1 2 0
1 3 0
2 0 0
2 1 0
2 2 154
2 3 0
3 0 0
3 1 0
3 2 0
3 3 0
2 8 13 0 4
0 0 154
0 1 0
1 0 0
1 1 0
2 42 41 0 4
0 0 154
0 1 0
1 0 0
1 1 0
2 41 64 0 8
0 0 154
0 1 0
0 2 154
0 3 0
1 0 0
1 1 0
1 2 0
1 3 0
2 24 41 0 4
0 0 154
0 1 0
1 0 0
1 1 2
3 45 37 68 0 8
0 0 0 154
0 0 1 0
0 1 0 0
0 1 1 0
1 0 0 0
1 0 1 0
1 1 0 0
1 1 1 0
2 65 66 0 4
0 0 154
0 1 0
1 0 0
1 1 1
2 20 14 0 4
0 0 154
0 1 0
1 0 0
1 1 2
2 56 51 0 8
0 0 154
0 1 0
1 0 0
1 1 0
2 0 154
2 1 0
3 0 0
3 1 0
2 77 76 0 4
0 0 154
0 1 0
1 0 0
1 1 1
2 82 73 0 8
0 0 154
0 1 0
0 2 154
0 3 0
1 0 0
1 1 0
1 2 0
1 3 0
2 60 48 0 4
0 0 154
0 1 0
1 0 0
1 1 0
2 60 47 0 4
0 0 154
0 1 0
1 0 0
1 1 0
2 8 4 0 4
0 0 154
0 1 0
1 0 0
1 1 0
2 74 72 0 8
0 0 154
0 1 0
0 2 154
0 3 0
1 0 0
1 1 0
1 2 0
1 3 0
2 10 16 0 8
0 0 154
0 1 0
0 2 154
0 3 0
1 0 0
1 1 0
1 2 0
1 3 0
2 82 81 0 8
0 0 154
0 1 0
0 2 154
0 3 0
1 0 0
1 1 1
1 2 0
1 3 1
2 78 81 0 16
0 0 154
0 1 0
0 2 0
0 3 0
1 0 0
1 1 154
1 2 0
1 3 0
2 0 0
2 1 0
2 2 154
2 3 0
3 0 0
3 1 0
3 2 0
3 3 0
2 55 46 0 8
0 0 154
0 1 0
0 2 154
0 3 0
1 0 0
1 1 0
1 2 0
1 3 0
2 69 70 0 12
0 0 0
0 1 154
0 2 0
0 3 0
1 0 1
1 1 0
1 2 154
1 3 1
2 0 1
2 1 0
2 2 1
2 3 1
2 38 41 0 4
0 0 154
0 1 0
1 0 0
1 1 0
2 52 59 0 4
0 0 154
0 1 0
1 0 0
1 1 0
2 43 51 0 4
0 0 154
0 1 0
1 0 0
1 1 0
2 84 86 0 8
0 0 154
0 1 0
0 2 154
0 3 0
1 0 0
1 1 0
1 2 0
1 3 0
2 65 60 0 4
0 0 154
0 1 0
1 0 0
1 1 0
2 45 54 0 8
0 0 0
0 1 154
0 2 0
0 3 0
1 0 0
1 1 0
1 2 0
1 3 0
2 7 2 0 8
0 0 0
0 1 0
1 0 154
1 1 0
2 0 0
2 1 0
3 0 0
3 1 0
2 7 6 0 16
0 0 154
0 1 0
0 2 0
0 3 0
1 0 0
1 1 154
1 2 0
1 3 0
2 0 0
2 1 0
2 2 154
2 3 0
3 0 0
3 1 0
3 2 0
3 3 0
2 56 46 0 16
0 0 154
0 1 0
0 2 0
0 3 0
1 0 0
1 1 154
1 2 0
1 3 0
2 0 0
2 1 0
2 2 154
2 3 0
3 0 0
3 1 0
3 2 0
3 3 0
2 10 7 0 8
0 0 154
0 1 0
0 2 154
0 3 0
1 0 0
1 1 0
1 2 0
1 3 0
2 48 49 0 4
0 0 154
0 1 0
1 0 0
1 1 0
2 50 46 0 8
0 0 154
0 1 0
0 2 154
0 3 0
1 0 0
1 1 0
1 2 0
1 3 0
2 74 71 0 8
0 0 154
0 1 0
0 2 154
0 3 0
1 0 0
1 1 0
1 2 0
1 3 0
2 41 65 0 4
0 0 154
0 1 0
1 0 0
1 1 0
2 14 7 0 8
0 0 154
0 1 0
0 2 154
0 3 0
1 0 0
1 1 0
1 2 0
1 3 0
2 80 83 0 4
0 0 154
0 1 0
1 0 0
1 1 0
2 43 58 0 4
0 0 154
0 1 0
1 0 0
1 1 0
2 25 29 0 8
0 0 154
0 1 0
1 0 0
1 1 0
2 0 154
2 1 0
3 0 0
3 1 0
2 43 63 0 4
0 0 154
0 1 0
1 0 0
1 1 0
2 54 62 0 8
0 0 154
0 1 0
1 0 0
1 1 0
2 0 154
2 1 0
3 0 0
3 1 0
2 23 21 0 4
0 0 154
0 1 0
1 0 0
1 1 0
2 46 52 0 8
0 0 154
0 1 0
1 0 0
1 1 0
2 0 154
2 1 0
3 0 0
3 1 0
2 57 52 0 4
0 0 154
0 1 0
1 0 0
1 1 0
2 58 52 0 4
0 0 154
0 1 0
1 0 0
1 1 0
2 40 54 0 8
0 0 0
0 1 154
0 2 0
0 3 0
1 0 0
1 1 0
1 2 0
1 3 0
2 42 61 0 4
0 0 154
0 1 0
1 0 0
1 1 0
2 63 53 0 8
0 0 154
0 1 0
0 2 154
0 3 0
1 0 0
1 1 0
1 2 0
1 3 0
2 41 52 0 4
0 0 154
0 1 0
1 0 0
1 1 0
2 81 86 0 16
0 0 154
0 1 0
0 2 0
0 3 0
1 0 0
1 1 154
1 2 0
1 3 0
2 0 0
2 1 0
2 2 154
2 3 0
3 0 0
3 1 0
3 2 0
3 3 0
2 9 7 0 8
0 0 154
0 1 0
0 2 154
0 3 0
1 0 0
1 1 0
1 2 0
1 3 0
2 74 73 0 8
0 0 154
0 1 0
0 2 154
0 3 0
1 0 0
1 1 0
1 2 0
1 3 0
2 7 11 0 8
0 0 0
0 1 0
1 0 154
1 1 0
2 0 0
2 1 0
3 0 0
3 1 0
2 76 75 0 8
0 0 154
0 1 0
0 2 154
0 3 0
1 0 0
1 1 1
1 2 0
1 3 1
2 84 80 0 4
0 0 154
0 1 0
1 0 0
1 1 0
2 53 52 0 8
0 0 154
0 1 0
1 0 0
1 1 0
2 0 154
2 1 0
3 0 0
3 1 0
2 42 60 0 4
0 0 154
0 1 0
1 0 0
1 1 0
2 24 43 0 4
0 0 154
0 1 0
1 0 0
1 1 0
2 67 66 0 4
0 0 154
0 1 0
1 0 0
1 1 1
2 80 86 0 8
0 0 154
0 1 0
0 2 154
0 3 0
1 0 0
1 1 0
1 2 0
1 3 0
2 50 49 0 4
0 0 154
0 1 0
1 0 0
1 1 0
2 74 81 0 8
0 0 154
0 1 0
0 2 154
0 3 0
1 0 0
1 1 0
1 2 0
1 3 0
2 61 49 0 4
0 0 154
0 1 0
1 0 0
1 1 0
2 18 20 0 4
0 0 154
0 1 0
1 0 0
1 1 0
2 12 2 0 4
0 0 154
0 1 0
1 0 0
1 1 0
2 12 6 0 8
0 0 0
0 1 154
0 2 0
0 3 0
1 0 0
1 1 0
1 2 0
1 3 0
2 76 78 0 8
0 0 154
0 1 0
0 2 154
0 3 0
1 0 0
1 1 0
1 2 0
1 3 0
2 12 5 0 8
0 0 0
0 1 154
0 2 0
0 3 0
1 0 0
1 1 0
1 2 0
1 3 0
2 38 61 0 4
0 0 154
0 1 0
1 0 0
1 1 0
2 77 70 0 8
0 0 154
0 1 0
0 2 154
0 3 0
1 0 0
1 1 0
1 2 0
1 3 0
2 72 70 0 16
0 0 154
0 1 0
0 2 0
0 3 0
1 0 0
1 1 154
1 2 0
1 3 0
2 0 0
2 1 0
2 2 154
2 3 0
3 0 0
3 1 0
3 2 0
3 3 0
2 8 6 0 8
0 0 154
0 1 0
0 2 154
0 3 0
1 0 0
1 1 0
1 2 0
1 3 0
2 63 60 0 4
0 0 154
0 1 0
1 0 0
1 1 0
2 33 35 0 4
0 0 154
0 1 0
1 0 0
1 1 0
2 54 57 0 8
0 0 154
0 1 0
1 0 0
1 1 0
2 0 154
2 1 0
3 0 0
3 1 0
2 60 46 0 8
0 0 154
0 1 0
0 2 154
0 3 0
1 0 0
1 1 0
1 2 0
1 3 0
2 77 79 0 4
0 0 154
0 1 0
1 0 0
1 1 0
2 38 60 0 4
0 0 154
0 1 0
1 0 0
1 1 0
2 63 64 0 8
0 0 154
0 1 0
0 2 154
0 3 0
1 0 0
1 1 0
1 2 0
1 3 0
2 77 85 0 8
0 0 154
0 1 0
0 2 154
0 3 0
1 0 0
1 1 0
1 2 0
1 3 0
2 13 7 0 8
0 0 154
0 1 0
0 2 154
0 3 0
1 0 0
1 1 0
1 2 0
1 3 0
2 20 16 0 8
0 0 154
0 1 0
0 2 154
0 3 0
1 0 0
1 1 0
1 2 0
1 3 0
2 26 29 0 8
0 0 154
0 1 0
1 0 0
1 1 0
2 0 154
2 1 0
3 0 0
3 1 0
2 12 11 0 4
0 0 154
0 1 0
1 0 0
1 1 1
2 43 41 0 4
0 0 154
0 1 0
1 0 0
1 1 0
2 56 39 0 8
0 0 0
0 1 0
1 0 154
1 1 0
2 0 0
2 1 0
3 0 0
3 1 0
2 77 87 0 8
0 0 154
0 1 0
0 2 154
0 3 0
1 0 0
1 1 0
1 2 0
1 3 0
2 27 57 0 4
0 0 154
0 1 0
1 0 0
1 1 0
2 60 49 0 4
0 0 154
0 1 0
1 0 0
1 1 0
2 18 14 0 4
0 0 154
0 1 0
1 0 0
1 1 0
2 28 31 0 8
0 0 154
0 1 0
1 0 0
1 1 0
2 0 154
2 1 0
3 0 0
3 1 0
3 37 68 54 0 16
0 0 0 0
0 0 1 154
0 0 2 0
0 0 3 0
0 1 0 0
0 1 1 0
0 1 2 0
0 1 3 0
1 0 0 0
1 0 1 0
1 0 2 0
1 0 3 0
1 1 0 0
1 1 1 0
1 1 2 0
1 1 3 0
2 74 83 0 4
0 0 154
0 1 0
1 0 0
1 1 0
2 47 59 0 4
0 0 154
0 1 0
1 0 0
1 1 0
2 54 51 0 8
0 0 154
0 1 0
1 0 0
1 1 0
2 0 154
2 1 0
3 0 0
3 1 0
2 58 54 0 8
0 0 154
0 1 0
0 2 154
0 3 0
1 0 0
1 1 0
1 2 0
1 3 0
2 87 78 0 16
0 0 154
0 1 0
0 2 0
0 3 0
1 0 0
1 1 154
1 2 0
1 3 0
2 0 0
2 1 0
2 2 154
2 3 0
3 0 0
3 1 0
3 2 0
3 3 0
2 37 35 0 4
0 0 154
0 1 0
1 0 0
1 1 1
2 47 62 0 4
0 0 154
0 1 0
1 0 0
1 1 0
2 5 2 0 8
0 0 0
0 1 0
1 0 154
1 1 0
2 0 0
2 1 0
3 0 0
3 1 0
2 50 61 0 4
0 0 154
0 1 0
1 0 0
1 1 0
2 41 54 0 8
0 0 154
0 1 0
0 2 154
0 3 0
1 0 0
1 1 0
1 2 0
1 3 0
2 10 15 0 8
0 0 154
0 1 0
0 2 154
0 3 0
1 0 0
1 1 0
1 2 0
1 3 0
2 46 62 0 8
0 0 154
0 1 0
1 0 0
1 1 0
2 0 154
2 1 0
3 0 0
3 1 0
2 72 69 0 12
0 0 0
0 1 0
0 2 0
1 0 154
1 1 0
1 2 0
2 0 0
2 1 154
2 2 0
3 0 0
3 1 0
3 2 0
2 84 75 0 8
0 0 154
0 1 0
0 2 154
0 3 0
1 0 0
1 1 0
1 2 0
1 3 0
2 51 49 0 4
0 0 154
0 1 0
1 0 0
1 1 0
2 14 15 0 8
0 0 154
0 1 0
0 2 154
0 3 0
1 0 0
1 1 0
1 2 0
1 3 0
2 10 1 0 4
0 0 154
0 1 0
1 0 0
1 1 0
2 41 62 0 4
0 0 154
0 1 0
1 0 0
1 1 0
2 19 16 0 8
0 0 154
0 1 0
0 2 154
0 3 0
1 0 0
1 1 0
1 2 0
1 3 0
2 26 25 0 16
0 0 154
0 1 0
0 2 0
0 3 0
1 0 0
1 1 154
1 2 0
1 3 0
2 0 0
2 1 0
2 2 154
2 3 0
3 0 0
3 1 0
3 2 0
3 3 0
3 35 68 54 0 16
0 0 0 0
0 0 1 154
0 0 2 0
0 0 3 0
0 1 0 0
0 1 1 0
0 1 2 0
0 1 3 0
1 0 0 0
1 0 1 0
1 0 2 0
1 0 3 0
1 1 0 0
1 1 1 0
1 1 2 0
1 1 3 0
2 48 53 0 8
0 0 154
0 1 0
0 2 154
0 3 0
1 0 0
1 1 0
1 2 0
1 3 0
3 36 68 46 0 16
0 0 0 0
0 0 1 154
0 0 2 0
0 0 3 0
0 1 0 0
0 1 1 0
0 1 2 0
0 1 3 0
1 0 0 0
1 0 1 0
1 0 2 0
1 0 3 0
1 1 0 0
1 1 1 0
1 1 2 0
1 1 3 0
2 2 6 0 8
0 0 0
0 1 154
0 2 0
0 3 0
1 0 0
1 1 0
1 2 0
1 3 0
2 82 75 0 8
0 0 154
0 1 0
0 2 154
0 3 0
1 0 0
1 1 0
1 2 0
1 3 0
2 84 87 0 8
0 0 154
0 1 0
0 2 154
0 3 0
1 0 0
1 1 0
1 2 0
1 3 0
2 8 14 0 4
0 0 154
0 1 0
1 0 0
1 1 0
2 84 78 0 8
0 0 154
0 1 0
0 2 154
0 3 0
1 0 0
1 1 0
1 2 0
1 3 0
2 78 75 0 16
0 0 154
0 1 0
0 2 1
0 3 1
1 0 0
1 1 154
1 2 0
1 3 0
2 0 1
2 1 0
2 2 154
2 3 1
3 0 1
3 1 0
3 2 1
3 3 1
2 9 15 0 8
0 0 154
0 1 0
0 2 154
0 3 0
1 0 0
1 1 0
1 2 0
1 3 0
2 82 78 0 8
0 0 154
0 1 0
0 2 154
0 3 0
1 0 0
1 1 0
1 2 0
1 3 0
2 9 13 0 4
0 0 154
0 1 0
1 0 0
1 1 0
2 28 29 0 8
0 0 154
0 1 0
1 0 0
1 1 0
2 0 154
2 1 0
3 0 0
3 1 0
2 43 60 0 4
0 0 154
0 1 0
1 0 0
1 1 2
2 40 46 0 8
0 0 0
0 1 154
0 2 0
0 3 0
1 0 0
1 1 0
1 2 0
1 3 0
2 79 86 0 8
0 0 154
0 1 0
0 2 154
0 3 0
1 0 0
1 1 0
1 2 0
1 3 0
2 42 65 0 4
0 0 154
0 1 0
1 0 0
1 1 0
2 52 49 0 4
0 0 154
0 1 0
1 0 0
1 1 0
2 77 72 0 8
0 0 154
0 1 0
0 2 154
0 3 0
1 0 0
1 1 0
1 2 0
1 3 0
2 43 38 0 4
0 0 154
0 1 0
1 0 0
1 1 0
2 42 52 0 4
0 0 154
0 1 0
1 0 0
1 1 0
2 9 4 0 4
0 0 154
0 1 0
1 0 0
1 1 2
2 46 57 0 8
0 0 154
0 1 0
1 0 0
1 1 0
2 0 154
2 1 0
3 0 0
3 1 0
2 10 17 0 4
0 0 154
0 1 0
1 0 0
1 1 0
2 50 53 0 8
0 0 154
0 1 0
0 2 154
0 3 0
1 0 0
1 1 0
1 2 0
1 3 0
2 41 48 0 4
0 0 154
0 1 0
1 0 0
1 1 0
2 60 61 0 4
0 0 154
0 1 0
1 0 0
1 1 0
2 48 55 0 4
0 0 154
0 1 0
1 0 0
1 1 0
2 41 57 0 4
0 0 154
0 1 0
1 0 0
1 1 0
2 10 9 0 4
0 0 154
0 1 0
1 0 0
1 1 0
2 1 27 0 4
0 0 154
0 1 0
1 0 0
1 1 2
2 73 72 0 16
0 0 154
0 1 0
0 2 0
0 3 0
1 0 0
1 1 154
1 2 0
1 3 0
2 0 0
2 1 0
2 2 154
2 3 0
3 0 0
3 1 0
3 2 0
3 3 0
2 13 15 0 8
0 0 154
0 1 0
0 2 154
0 3 0
1 0 0
1 1 0
1 2 0
1 3 0
2 63 56 0 8
0 0 154
0 1 0
0 2 154
0 3 0
1 0 0
1 1 0
1 2 0
1 3 0
2 1 7 0 8
0 0 154
0 1 0
0 2 154
0 3 0
1 0 0
1 1 0
1 2 0
1 3 0
2 80 76 0 4
0 0 154
0 1 0
1 0 0
1 1 0
2 62 51 0 4
0 0 154
0 1 0
1 0 0
1 1 0
2 84 77 0 4
0 0 154
0 1 0
1 0 0
1 1 0
2 77 71 0 8
0 0 154
0 1 0
0 2 154
0 3 0
1 0 0
1 1 0
1 2 0
1 3 0
2 38 52 0 4
0 0 154
0 1 0
1 0 0
1 1 0
2 10 18 0 4
0 0 154
0 1 0
1 0 0
1 1 0
2 50 55 0 4
0 0 154
0 1 0
1 0 0
1 1 0
2 34 32 0 4
0 0 154
0 1 0
1 0 0
1 1 1
2 47 51 0 4
0 0 154
0 1 0
1 0 0
1 1 0
2 20 15 0 8
0 0 154
0 1 0
0 2 154
0 3 0
1 0 0
1 1 0
1 2 0
1 3 0
2 28 25 0 16
0 0 154
0 1 0
0 2 0
0 3 0
1 0 0
1 1 154
1 2 0
1 3 0
2 0 0
2 1 0
2 2 154
2 3 0
3 0 0
3 1 0
3 2 0
3 3 0
2 57 49 0 4
0 0 154
0 1 0
1 0 0
1 1 0
2 58 49 0 4
0 0 154
0 1 0
1 0 0
1 1 2
2 46 51 0 8
0 0 154
0 1 0
1 0 0
1 1 0
2 0 154
2 1 0
3 0 0
3 1 0
2 25 27 0 8
0 0 154
0 1 0
1 0 0
1 1 0
2 0 154
2 1 0
3 0 0
3 1 0
2 77 73 0 8
0 0 154
0 1 0
0 2 154
0 3 0
1 0 0
1 1 0
1 2 0
1 3 0
2 29 41 0 4
0 0 154
0 1 0
1 0 0
1 1 0
2 1 24 0 4
0 0 154
0 1 0
1 0 0
1 1 0
2 27 41 0 4
0 0 154
0 1 0
1 0 0
1 1 0
2 85 81 0 16
0 0 154
0 1 0
0 2 1
0 3 1
1 0 0
1 1 154
1 2 0
1 3 0
2 0 1
2 1 0
2 2 154
2 3 1
3 0 1
3 1 0
3 2 1
3 3 1
2 60 53 0 8
0 0 154
0 1 0
0 2 154
0 3 0
1 0 0
1 1 0
1 2 0
1 3 0
2 63 59 0 4
0 0 154
0 1 0
1 0 0
1 1 0
2 41 51 0 4
0 0 154
0 1 0
1 0 0
1 1 0
2 9 31 0 4
0 0 154
0 1 0
1 0 0
1 1 0
2 18 7 0 8
0 0 154
0 1 0
0 2 154
0 3 0
1 0 0
1 1 0
1 2 0
1 3 0
2 77 81 0 8
0 0 154
0 1 0
0 2 154
0 3 0
1 0 0
1 1 0
1 2 0
1 3 0
2 14 6 0 8
0 0 154
0 1 0
0 2 154
0 3 0
1 0 0
1 1 0
1 2 0
1 3 0
2 14 5 0 8
0 0 154
0 1 0
0 2 154
0 3 0
1 0 0
1 1 0
1 2 0
1 3 0
2 53 49 0 8
0 0 154
0 1 0
1 0 0
1 1 0
2 0 154
2 1 0
3 0 0
3 1 0
2 12 16 0 8
0 0 0
0 1 154
0 2 0
0 3 0
1 0 0
1 1 0
1 2 0
1 3 0
2 10 31 0 4
0 0 154
0 1 0
1 0 0
1 1 0
2 28 26 0 16
0 0 154
0 1 0
0 2 0
0 3 0
1 0 0
1 1 154
1 2 0
1 3 0
2 0 0
2 1 0
2 2 154
2 3 0
3 0 0
3 1 0
3 2 0
3 3 0
2 52 61 0 4
0 0 154
0 1 0
1 0 0
1 1 0
2 8 16 0 8
0 0 154
0 1 0
0 2 154
0 3 0
1 0 0
1 1 0
1 2 0
1 3 0
2 9 6 0 8
0 0 154
0 1 0
0 2 154
0 3 0
1 0 0
1 1 0
1 2 0
1 3 0
2 55 56 0 8
0 0 154
0 1 0
0 2 154
0 3 0
1 0 0
1 1 0
1 2 0
1 3 0
2 76 72 0 8
0 0 154
0 1 0
0 2 154
0 3 0
1 0 0
1 1 0
1 2 0
1 3 0
2 9 5 0 8
0 0 154
0 1 0
0 2 154
0 3 0
1 0 0
1 1 0
1 2 0
1 3 0
2 41 58 0 4
0 0 154
0 1 0
1 0 0
1 1 0
2 41 63 0 4
0 0 154
0 1 0
1 0 0
1 1 0
2 24 47 0 4
0 0 154
0 1 0
1 0 0
1 1 0
2 43 50 0 4
0 0 154
0 1 0
1 0 0
1 1 0
2 24 57 0 4
0 0 154
0 1 0
1 0 0
1 1 0
2 25 24 0 8
0 0 154
0 1 0
1 0 0
1 1 0
2 0 154
2 1 0
3 0 0
3 1 0
2 12 7 0 8
0 0 0
0 1 154
0 2 0
0 3 0
1 0 0
1 1 0
1 2 0
1 3 0
2 60 55 0 4
0 0 154
0 1 0
1 0 0
1 1 0
2 60 64 0 8
0 0 154
0 1 0
0 2 154
0 3 0
1 0 0
1 1 0
1 2 0
1 3 0
2 30 24 0 8
0 0 154
0 1 0
1 0 0
1 1 0
2 0 154
2 1 0
3 0 0
3 1 0
2 23 19 0 4
0 0 154
0 1 0
1 0 0
1 1 0
2 8 7 0 8
0 0 154
0 1 0
0 2 154
0 3 0
1 0 0
1 1 0
1 2 0
1 3 0
2 42 54 0 8
0 0 154
0 1 0
0 2 154
0 3 0
1 0 0
1 1 0
1 2 0
1 3 0
2 26 27 0 8
0 0 154
0 1 0
1 0 0
1 1 0
2 0 154
2 1 0
3 0 0
3 1 0
2 56 52 0 8
0 0 154
0 1 0
1 0 0
1 1 0
2 0 154
2 1 0
3 0 0
3 1 0
3 35 68 46 0 16
0 0 0 0
0 0 1 154
0 0 2 0
0 0 3 0
0 1 0 0
0 1 1 0
0 1 2 0
0 1 3 0
1 0 0 0
1 0 1 0
1 0 2 0
1 0 3 0
1 1 0 0
1 1 1 0
1 1 2 0
1 1 3 0
2 50 52 0 4
0 0 154
0 1 0
1 0 0
1 1 0
2 19 15 0 8
0 0 154
0 1 0
0 2 154
0 3 0
1 0 0
1 1 0
1 2 0
1 3 0
2 63 57 0 4
0 0 154
0 1 0
1 0 0
1 1 0
2 76 71 0 8
0 0 154
0 1 0
0 2 154
0 3 0
1 0 0
1 1 0
1 2 0
1 3 0
2 13 6 0 8
0 0 154
0 1 0
0 2 154
0 3 0
1 0 0
1 1 0
1 2 0
1 3 0
2 43 56 0 8
0 0 154
0 1 0
0 2 154
0 3 0
1 0 0
1 1 0
1 2 0
1 3 0
2 80 79 0 4
0 0 154
0 1 0
1 0 0
1 1 1
2 74 76 0 4
0 0 154
0 1 0
1 0 0
1 1 0
2 13 5 0 8
0 0 154
0 1 0
0 2 154
0 3 0
1 0 0
1 1 0
1 2 0
1 3 0
2 55 59 0 4
0 0 154
0 1 0
1 0 0
1 1 0
2 29 43 0 4
0 0 154
0 1 0
1 0 0
1 1 0
2 71 75 0 16
0 0 154
0 1 0
0 2 0
0 3 0
1 0 0
1 1 154
1 2 0
1 3 0
2 0 0
2 1 0
2 2 154
2 3 0
3 0 0
3 1 0
3 2 0
3 3 0
2 9 8 0 4
0 0 154
0 1 0
1 0 0
1 1 0
2 57 61 0 4
0 0 154
0 1 0
1 0 0
1 1 0
2 79 75 0 8
0 0 154
0 1 0
0 2 154
0 3 0
1 0 0
1 1 0
1 2 0
1 3 0
2 48 56 0 8
0 0 154
0 1 0
0 2 154
0 3 0
1 0 0
1 1 0
1 2 0
1 3 0
2 76 82 0 4
0 0 154
0 1 0
1 0 0
1 1 0
2 38 54 0 8
0 0 154
0 1 0
0 2 154
0 3 0
1 0 0
1 1 0
1 2 0
1 3 0
2 79 78 0 8
0 0 154
0 1 0
0 2 154
0 3 0
1 0 0
1 1 0
1 2 0
1 3 0
2 73 83 0 8
0 0 154
0 1 0
1 0 0
1 1 0
2 0 154
2 1 0
3 0 0
3 1 0
2 84 85 0 8
0 0 154
0 1 0
0 2 154
0 3 0
1 0 0
1 1 0
1 2 0
1 3 0
2 76 81 0 8
0 0 154
0 1 0
0 2 154
0 3 0
1 0 0
1 1 0
1 2 0
1 3 0
2 1 13 0 4
0 0 154
0 1 0
1 0 0
1 1 0
2 53 44 0 8
0 0 0
0 1 0
1 0 154
1 1 0
2 0 0
2 1 0
3 0 0
3 1 0
2 80 87 0 8
0 0 154
0 1 0
0 2 154
0 3 0
1 0 0
1 1 0
1 2 0
1 3 0
2 43 59 0 4
0 0 154
0 1 0
1 0 0
1 1 0
2 19 17 0 4
0 0 154
0 1 0
1 0 0
1 1 0
2 1 4 0 4
0 0 154
0 1 0
1 0 0
1 1 0
2 60 52 0 4
0 0 154
0 1 0
1 0 0
1 1 0
2 55 47 0 4
0 0 154
0 1 0
1 0 0
1 1 0
2 48 59 0 4
0 0 154
0 1 0
1 0 0
1 1 0
2 7 15 0 16
0 0 154
0 1 0
0 2 0
0 3 0
1 0 0
1 1 154
1 2 0
1 3 0
2 0 0
2 1 0
2 2 154
2 3 0
3 0 0
3 1 0
3 2 0
3 3 0
2 75 83 0 8
0 0 154
0 1 0
1 0 0
1 1 0
2 0 154
2 1 0
3 0 0
3 1 0
2 48 62 0 4
0 0 154
0 1 0
1 0 0
1 1 0
2 58 53 0 8
0 0 154
0 1 0
0 2 154
0 3 0
1 0 0
1 1 0
1 2 0
1 3 0
2 56 47 0 8
0 0 154
0 1 0
1 0 0
1 1 0
2 0 154
2 1 0
3 0 0
3 1 0
2 18 13 0 4
0 0 154
0 1 0
1 0 0
1 1 0
2 33 32 0 4
0 0 154
0 1 0
1 0 0
1 1 1
2 80 85 0 8
0 0 154
0 1 0
0 2 154
0 3 0
1 0 0
1 1 0
1 2 0
1 3 0
2 22 20 0 4
0 0 154
0 1 0
1 0 0
1 1 0
2 78 72 0 16
0 0 154
0 1 0
0 2 0
0 3 0
1 0 0
1 1 154
1 2 0
1 3 0
2 0 0
2 1 0
2 2 154
2 3 0
3 0 0
3 1 0
3 2 0
3 3 0
2 75 86 0 16
0 0 154
0 1 0
0 2 0
0 3 0
1 0 0
1 1 154
1 2 0
1 3 0
2 0 0
2 1 0
2 2 154
2 3 0
3 0 0
3 1 0
3 2 0
3 3 0
2 50 54 0 8
0 0 154
0 1 0
0 2 154
0 3 0
1 0 0
1 1 0
1 2 0
1 3 0
2 61 59 0 4
0 0 154
0 1 0
1 0 0
1 1 0
2 43 48 0 4
0 0 154
0 1 0
1 0 0
1 1 0
2 43 47 0 4
0 0 154
0 1 0
1 0 0
1 1 0
2 74 79 0 4
0 0 154
0 1 0
1 0 0
1 1 0
2 76 83 0 4
0 0 154
0 1 0
1 0 0
1 1 0
2 42 49 0 4
0 0 154
0 1 0
1 0 0
1 1 0
2 12 15 0 8
0 0 0
0 1 154
0 2 0
0 3 0
1 0 0
1 1 0
1 2 0
1 3 0
2 50 62 0 4
0 0 154
0 1 0
1 0 0
1 1 0
2 48 47 0 4
0 0 154
0 1 0
1 0 0
1 1 0
2 58 55 0 4
0 0 154
0 1 0
1 0 0
1 1 0
2 41 60 0 4
0 0 154
0 1 0
1 0 0
1 1 0
2 72 75 0 16
0 0 154
0 1 0
0 2 0
0 3 0
1 0 0
1 1 154
1 2 0
1 3 0
2 0 0
2 1 0
2 2 154
2 3 0
3 0 0
3 1 0
3 2 0
3 3 0
2 58 64 0 8
0 0 154
0 1 0
0 2 154
0 3 0
1 0 0
1 1 0
1 2 0
1 3 0
2 64 53 0 16
0 0 154
0 1 0
0 2 0
0 3 0
1 0 0
1 1 154
1 2 0
1 3 0
2 0 0
2 1 0
2 2 154
2 3 0
3 0 0
3 1 0
3 2 0
3 3 0
2 8 15 0 8
0 0 154
0 1 0
0 2 154
0 3 0
1 0 0
1 1 0
1 2 0
1 3 0
2 48 57 0 4
0 0 154
0 1 0
1 0 0
1 1 0
2 71 70 0 16
0 0 154
0 1 0
0 2 0
0 3 0
1 0 0
1 1 154
1 2 0
1 3 0
2 0 0
2 1 0
2 2 154
2 3 0
3 0 0
3 1 0
3 2 0
3 3 0
2 45 56 0 8
0 0 0
0 1 154
0 2 0
0 3 0
1 0 0
1 1 0
1 2 0
1 3 0
2 77 78 0 8
0 0 154
0 1 0
0 2 154
0 3 0
1 0 0
1 1 1
1 2 0
1 3 1
2 84 73 0 8
0 0 154
0 1 0
0 2 154
0 3 0
1 0 0
1 1 0
1 2 0
1 3 0
2 42 58 0 4
0 0 154
0 1 0
1 0 0
1 1 0
2 0 4 0 8
0 0 154
0 1 0
1 0 0
1 1 0
2 0 154
2 1 0
3 0 0
3 1 0
2 38 49 0 4
0 0 154
0 1 0
1 0 0
1 1 0
2 24 42 0 4
0 0 154
0 1 0
1 0 0
1 1 0
2 1 6 0 8
0 0 154
0 1 0
0 2 154
0 3 0
1 0 0
1 1 0
1 2 0
1 3 0
2 84 81 0 8
0 0 154
0 1 0
0 2 154
0 3 0
1 0 0
1 1 0
1 2 0
1 3 0
2 37 32 0 4
0 0 154
0 1 0
1 0 0
1 1 0
2 1 5 0 8
0 0 154
0 1 0
0 2 154
0 3 0
1 0 0
1 1 0
1 2 0
1 3 0
2 40 56 0 8
0 0 0
0 1 154
0 2 0
0 3 0
1 0 0
1 1 0
1 2 0
1 3 0
2 65 61 0 4
0 0 154
0 1 0
1 0 0
1 1 0
2 14 16 0 8
0 0 154
0 1 0
0 2 154
0 3 0
1 0 0
1 1 0
1 2 0
1 3 0
2 1 31 0 4
0 0 154
0 1 0
1 0 0
1 1 0
2 60 54 0 8
0 0 154
0 1 0
0 2 154
0 3 0
1 0 0
1 1 0
1 2 0
1 3 0
2 50 57 0 4
0 0 154
0 1 0
1 0 0
1 1 0
2 0 3 0 8
0 0 0
0 1 0
1 0 154
1 1 0
2 0 0
2 1 0
3 0 0
3 1 0
2 38 58 0 4
0 0 154
0 1 0
1 0 0
1 1 0
2 83 86 0 8
0 0 154
0 1 0
0 2 154
0 3 0
1 0 0
1 1 0
1 2 0
1 3 0
2 31 24 0 4
0 0 154
0 1 0
1 0 0
1 1 0
1 0 154 4
0 0
1 0
2 0
3 1
1 1 154 2
0 0
1 0
1 2 154 2
0 0
1 0
1 3 154 2
0 0
1 0
1 4 154 2
0 0
1 0
1 5 154 4
0 0
1 0
2 0
3 1
1 6 154 4
0 0
1 0
2 0
3 1
1 7 154 4
0 0
1 0
2 0
3 1
1 8 154 2
0 0
1 0
1 9 154 2
0 0
1 0
1 10 154 2
0 0
1 0
1 11 154 2
0 0
1 0
1 12 154 2
0 0
1 0
1 13 154 2
0 0
1 0
1 14 154 2
0 0
1 0
1 15 154 4
0 0
1 0
2 0
3 1
1 16 154 4
0 0
1 0
2 0
3 1
1 17 154 2
0 0
1 0
1 18 154 2
0 0
1 0
1 19 154 2
0 0
1 0
1 20 154 2
0 0
1 0
1 21 154 2
0 0
1 0
1 22 154 2
0 0
1 0
1 23 154 2
0 0
1 0
1 24 154 2
0 0
1 0
1 25 154 4
0 0
1 0
2 0
3 1
1 26 154 4
0 0
1 0
2 0
3 1
1 27 154 2
0 0
1 0
1 28 154 4
0 0
1 0
2 0
3 1
1 29 154 2
0 0
1 0
1 30 154 4
0 0
1 0
2 0
3 1
1 31 154 2
0 0
1 0
1 32 154 2
0 0
1 0
1 33 154 2
0 0
1 0
1 34 154 2
0 0
1 0
1 35 154 2
0 0
1 0
1 36 154 2
0 0
1 0
1 37 154 2
0 0
1 0
1 38 154 2
0 0
1 0
1 39 154 2
0 0
1 0
1 40 154 2
0 0
1 0
1 41 154 2
0 0
1 0
1 42 154 2
0 0
1 0
1 43 154 2
0 0
1 0
1 44 154 2
0 0
1 0
1 45 154 2
0 0
1 0
1 46 154 4
0 0
1 0
2 0
3 1
1 47 154 2
0 0
1 0
1 48 154 2
0 0
1 0
1 49 154 2
0 0
1 0
1 50 154 2
0 0
1 0
1 51 154 2
0 0
1 0
1 52 154 2
0 0
1 0
1 53 154 4
0 0
1 0
2 0
3 1
1 54 154 4
0 0
1 0
2 0
3 1
1 55 154 2
0 0
1 0
1 56 154 4
0 0
1 0
2 0
3 1
1 57 154 2
0 0
1 0
1 58 154 2
0 0
1 0
1 59 154 2
0 0
1 0
1 60 154 2
0 0
1 0
1 61 154 2
0 0
1 0
1 62 154 2
0 0
1 0
1 63 154 2
0 0
1 0
1 64 154 4
0 0
1 0
2 0
3 1
1 65 154 2
0 0
1 0
1 66 154 2
0 0
1 0
1 67 154 2
0 0
1 0
1 68 154 2
0 0
1 2
1 69 154 3
0 1
1 1
2 0
1 70 154 4
0 0
1 0
2 0
3 0
1 71 154 4
0 0
1 0
2 0
3 1
1 72 154 4
0 0
1 0
2 0
3 1
1 73 154 4
0 0
1 0
2 0
3 0
1 74 154 2
0 0
1 0
1 75 154 4
0 0
1 0
2 0
3 0
1 76 154 2
0 0
1 0
1 77 154 2
0 0
1 0
1 78 154 4
0 0
1 0
2 0
3 0
1 79 154 2
0 0
1 0
1 80 154 2
0 0
1 0
1 81 154 4
0 0
1 0
2 0
3 0
1 82 154 2
0 0
1 0
1 83 154 2
0 0
1 0
1 84 154 2
0 0
1 0
1 85 154 4
0 0
1 0
2 0
3 0
1 86 154 4
0 0
1 0
2 0
3 1
1 87 154 4
0 0
1 0
2 0
3 1
0 67 0
